4 100 1672
7 6 8 6 7 5 10 13 13 7
3 1 2 3
5 7 9
6
7 6
6 6 8
0 40.0 50.0 0.0 0.0 0 240
2 25.0 85.0 10.0 20.0 130 190 51 0 0 0 0 0 0 1 0 0 1
3 22.0 75.0 10.0 30.0 35 95 61 1 0 1 0 0 0 1 0 0 1
4 22.0 85.0 10.0 10.0 94 154 18 0 0 0 0 0 1 0 0 1 0
5 20.0 80.0 10.0 40.0 126 186 6 0 0 0 0 0 1 0 0 0 0
6 20.0 85.0 10.0 20.0 40 100 18 1 0 0 0 0 1 0 1 0 0
7 18.0 75.0 10.0 20.0 80 140 15 0 0 0 0 0 0 1 0 0 0
8 15.0 75.0 10.0 20.0 64 124 57 1 0 0 0 1 0 1 1 0 0
9 15.0 80.0 10.0 10.0 76 136 72 1 1 0 0 0 0 0 0 0 0
10 10.0 35.0 10.0 20.0 76 136 28 1 1 0 0 1 1 0 0 0 0
11 10.0 40.0 10.0 30.0 104 164 44 0 1 0 0 0 0 1 0 0 0
12 8.0 40.0 10.0 40.0 44 104 79 0 0 1 0 0 1 0 0 1 0
13 8.0 45.0 10.0 20.0 49 109 75 0 0 0 0 0 1 1 0 0 0
14 5.0 35.0 10.0 10.0 127 187 71 0 0 0 0 0 1 0 0 0 1
15 5.0 45.0 10.0 10.0 35 95 7 0 1 1 1 0 1 0 1 0 1
16 2.0 40.0 10.0 20.0 43 103 45 1 0 0 0 0 0 0 0 0 0
17 0.0 40.0 10.0 20.0 57 117 89 0 1 0 0 0 0 0 0 0 1
18 0.0 45.0 10.0 20.0 129 189 44 0 0 1 1 0 0 0 0 0 0
19 44.0 5.0 10.0 20.0 72 132 7 0 0 0 0 0 1 0 0 0 0
20 42.0 10.0 10.0 40.0 57 117 49 1 0 0 0 0 0 0 0 1 0
21 42.0 15.0 10.0 10.0 107 167 1 0 0 0 0 1 0 0 1 0 0
22 40.0 5.0 10.0 10.0 52 112 82 0 1 0 1 0 0 0 0 0 0
23 40.0 15.0 10.0 40.0 77 137 31 1 0 0 0 0 0 0 0 0 0
24 38.0 5.0 10.0 30.0 50 110 12 0 0 1 0 0 0 0 0 0 0
25 38.0 15.0 10.0 10.0 133 193 4 0 1 1 0 0 0 1 0 1 0
26 35.0 5.0 10.0 20.0 124 184 45 0 0 0 0 1 0 0 0 0 1
27 95.0 30.0 10.0 30.0 100 160 98 0 0 1 1 0 0 0 0 1 1
28 95.0 35.0 10.0 20.0 57 117 17 0 0 0 0 1 1 0 0 0 0
29 92.0 30.0 10.0 10.0 55 115 20 0 0 0 1 0 0 0 0 0 1
30 90.0 35.0 10.0 10.0 52 112 54 0 1 0 0 0 0 0 0 1 0
31 88.0 30.0 10.0 10.0 59 119 17 1 0 0 1 0 0 0 0 0 0
32 88.0 35.0 10.0 20.0 50 110 28 0 0 0 0 0 1 0 0 0 0
33 87.0 30.0 10.0 10.0 116 176 70 0 0 0 0 0 1 0 0 0 0
34 85.0 25.0 10.0 10.0 51 111 7 0 0 0 1 1 0 0 0 0 0
35 85.0 35.0 10.0 30.0 96 156 42 1 0 0 1 0 1 0 0 0 0
36 67.0 85.0 10.0 20.0 124 184 49 0 1 1 0 1 0 0 0 0 0
37 65.0 85.0 10.0 40.0 43 103 54 0 1 0 0 1 0 0 0 0 0
38 65.0 82.0 10.0 10.0 109 169 17 0 0 0 1 0 0 1 0 1 0
39 62.0 80.0 10.0 30.0 60 120 21 0 1 0 0 0 0 0 1 0 0
40 60.0 80.0 10.0 10.0 36 96 25 0 0 1 0 0 0 1 1 0 0
41 60.0 85.0 10.0 30.0 70 130 69 0 0 1 0 0 0 0 1 0 0
42 58.0 75.0 10.0 20.0 77 137 94 0 0 0 0 0 0 1 1 0 0
43 55.0 80.0 10.0 10.0 33 93 50 0 0 0 0 0 1 0 0 0 0
44 55.0 85.0 10.0 20.0 113 173 22 0 0 0 0 1 0 0 1 1 0
45 55.0 82.0 10.0 10.0 49 109 91 0 0 0 1 0 0 0 0 1 1
46 20.0 82.0 10.0 10.0 37 97 78 0 0 0 0 0 0 1 0 1 0
47 18.0 80.0 10.0 10.0 98 158 18 0 0 0 0 0 0 0 1 0 0
48 2.0 45.0 10.0 10.0 38 98 28 0 0 0 0 0 1 0 0 0 0
49 42.0 5.0 10.0 10.0 124 184 99 0 0 0 0 0 1 0 0 0 0
50 42.0 12.0 10.0 10.0 89 149 29 0 1 0 0 1 1 0 0 1 0
51 72.0 35.0 10.0 30.0 101 161 59 0 0 0 0 0 1 0 0 0 0
52 55.0 20.0 10.0 19.0 68 128 49 0 0 1 0 1 1 0 1 0 0
53 25.0 30.0 10.0 3.0 37 97 88 0 0 0 0 1 0 0 0 0 1
54 20.0 50.0 10.0 5.0 76 136 22 0 0 0 0 0 1 0 0 0 0
55 55.0 60.0 10.0 16.0 124 184 84 0 1 0 0 0 0 1 0 1 1
56 30.0 60.0 10.0 16.0 125 185 18 0 0 0 0 0 0 0 0 0 1
57 50.0 35.0 10.0 19.0 115 175 21 0 0 0 1 0 1 0 1 0 0
58 30.0 25.0 10.0 23.0 81 141 28 0 0 0 0 0 0 0 0 1 0
59 15.0 10.0 10.0 20.0 122 182 58 0 0 1 0 1 0 0 0 0 0
60 10.0 20.0 10.0 19.0 42 102 97 1 0 0 0 1 0 0 1 0 0
61 15.0 60.0 10.0 17.0 140 200 49 1 0 1 1 0 0 0 1 0 0
62 45.0 65.0 10.0 9.0 51 111 94 0 0 0 1 1 0 0 0 0 0
63 65.0 35.0 10.0 3.0 37 97 73 1 0 0 1 1 0 0 0 0 0
64 65.0 20.0 10.0 6.0 39 99 98 0 0 0 0 0 1 0 0 1 0
65 45.0 30.0 10.0 17.0 38 98 2 0 1 1 0 0 1 0 0 0 1
66 35.0 40.0 10.0 16.0 11 71 30 0 0 0 0 0 0 0 1 0 0
67 41.0 37.0 10.0 16.0 118 178 18 0 0 0 1 0 0 0 0 0 0
68 64.0 42.0 10.0 9.0 55 115 62 0 0 0 0 1 0 0 0 0 1
69 40.0 60.0 10.0 21.0 129 189 53 0 0 0 0 0 0 0 0 1 0
70 31.0 52.0 10.0 27.0 26 86 35 0 0 0 0 1 0 0 0 0 1
71 35.0 69.0 10.0 23.0 150 210 34 0 0 0 1 0 0 0 0 0 0
72 65.0 55.0 10.0 14.0 50 110 94 1 0 0 0 0 1 0 0 1 1
73 63.0 65.0 10.0 8.0 27 87 11 0 0 0 0 1 0 0 0 1 1
74 2.0 60.0 10.0 5.0 62 122 99 0 0 1 0 0 1 0 0 0 0
75 20.0 20.0 10.0 8.0 126 186 84 0 1 0 0 0 0 0 0 0 1
76 5.0 5.0 10.0 16.0 59 119 28 0 0 1 0 1 0 0 0 0 0
77 60.0 12.0 10.0 31.0 60 120 2 0 0 1 0 1 0 1 0 0 0
78 23.0 3.0 10.0 7.0 120 180 0 0 0 0 0 0 0 0 0 0 1
79 8.0 56.0 10.0 27.0 75 135 5 0 0 0 0 0 0 0 1 1 0
80 6.0 68.0 10.0 30.0 74 134 42 0 1 0 0 1 0 0 1 0 1
81 47.0 47.0 10.0 13.0 162 222 62 0 0 1 1 0 0 0 0 1 0
82 49.0 58.0 10.0 10.0 71 131 63 0 0 0 0 0 0 0 1 0 0
83 27.0 43.0 10.0 9.0 27 87 29 1 0 0 0 0 0 1 1 0 1
84 37.0 31.0 10.0 14.0 20 80 56 0 0 0 1 0 0 0 0 0 0
85 57.0 29.0 10.0 18.0 81 141 51 1 0 1 0 0 0 0 0 0 0
86 63.0 23.0 10.0 2.0 72 132 7 0 1 0 0 0 0 0 1 0 1
87 21.0 24.0 10.0 28.0 72 132 25 0 0 0 1 0 0 0 0 1 0
88 12.0 24.0 10.0 13.0 75 135 53 0 1 0 0 0 0 0 0 0 0
89 24.0 58.0 10.0 19.0 52 112 93 0 0 0 0 0 1 0 0 0 0
90 67.0 5.0 10.0 25.0 117 177 44 1 0 0 0 0 0 0 1 0 0
91 37.0 47.0 10.0 6.0 71 131 24 0 0 0 1 0 0 1 0 0 0
92 49.0 42.0 10.0 13.0 152 212 53 0 0 0 0 1 0 0 0 0 0
93 53.0 43.0 10.0 14.0 14 74 88 0 0 0 0 0 0 0 0 0 1
94 61.0 52.0 10.0 3.0 148 208 88 0 0 0 1 0 0 0 1 0 0
95 57.0 48.0 10.0 23.0 80 140 47 0 0 0 0 0 0 0 0 1 0
96 56.0 37.0 10.0 6.0 20 80 89 0 0 1 0 0 0 0 0 0 0
97 55.0 54.0 10.0 26.0 117 177 90 0 0 0 1 0 0 0 1 1 0
98 4.0 18.0 10.0 35.0 105 165 27 0 0 0 0 0 1 0 0 0 0
99 26.0 52.0 10.0 9.0 31 91 98 0 0 0 1 0 0 0 1 0 0
100 26.0 35.0 10.0 15.0 62 122 24 0 0 0 0 0 1 0 0 0 0
101 31.0 67.0 10.0 3.0 150 210 1 0 0 0 0 1 1 0 0 1 1